Maximize
 0
Subject To
 epc_0!1: -97.65366717528123 y_1!1_2!1 -88.6590492458909 y_1!2_2!1 +50.577299139358274 y_1!3_2!1 +14.309714349499103 y_1!4_2!1 -75.64008742259259 y_1!5_2!1 +33.797345832437685 y_1!1_2!2 -51.02675780178021 y_1!2_2!2 +24.588211209060475 y_1!3_2!2 -93.00879603658667 y_1!4_2!2 -12.896687654085113 y_1!5_2!2 +38.09384532149434 y_1!1_2!3 +15.585502280381462 y_1!2_2!3 +65.08938570615501 y_1!3_2!3 -91.92654347116209 y_1!4_2!3 -2.403503131800406 y_1!5_2!3 -15.71247917136445 y_1!1_2!4 +79.00957263490957 y_1!2_2!4 -61.11942528595027 y_1!3_2!4 -46.20390974263493 y_1!4_2!4 -24.35856246829448 y_1!5_2!4 -49.57433087248213 y_1!1_2!5 +74.93459765297504 y_1!2_2!5 +6.749498340240862 y_1!3_2!5 +15.551256788174797 y_1!4_2!5 -37.24229534652259 y_1!5_2!5 + lambda_0!1 - mu_0 = 0
 epc_0!2: -73.42091101859758 y_1!1_2!1 -89.5598131150693 y_1!2_2!1 +6.790159343221845 y_1!3_2!1 +85.68410309109413 y_1!4_2!1 +91.58879645516623 y_1!5_2!1 +77.8002895438089 y_1!1_2!2 -1.4133459132734032 y_1!2_2!2 +10.781329201644013 y_1!3_2!2 +45.10516898380922 y_1!4_2!2 +94.92801792870961 y_1!5_2!2 -72.70381713722193 y_1!1_2!3 -61.086785255496444 y_1!2_2!3 +73.43506869304338 y_1!3_2!3 +6.844966845642688 y_1!4_2!3 +24.81384433226215 y_1!5_2!3 -44.42708218909217 y_1!1_2!4 +6.262336402724955 y_1!2_2!4 -86.51636162795972 y_1!3_2!4 -48.84781561535378 y_1!4_2!4 +5.402945929541488 y_1!5_2!4 +75.7989635343933 y_1!1_2!5 +26.66142383589836 y_1!2_2!5 -89.6448464115857 y_1!3_2!5 -92.54597219214075 y_1!4_2!5 +14.338228991768915 y_1!5_2!5 + lambda_0!2 - mu_0 = 0
 epc_0!3: +74.48665885975399 y_1!1_2!1 -68.37110781565939 y_1!2_2!1 -87.40936180360083 y_1!3_2!1 +23.26914397507487 y_1!4_2!1 +34.9829004315917 y_1!5_2!1 +92.2834799968638 y_1!1_2!2 -14.646323676349795 y_1!2_2!2 -74.28807594925931 y_1!3_2!2 -48.67707637471818 y_1!4_2!2 -47.92960560016925 y_1!5_2!2 +46.467561180356796 y_1!1_2!3 -26.899302157350945 y_1!2_2!3 +82.10714654462632 y_1!3_2!3 +50.3801006924557 y_1!4_2!3 -40.16382626734225 y_1!5_2!3 +93.34453313492162 y_1!1_2!4 -99.1004858636501 y_1!2_2!4 -53.92008787091043 y_1!3_2!4 +29.033053469229657 y_1!4_2!4 +74.44212658974328 y_1!5_2!4 -91.71983473679796 y_1!1_2!5 +48.81090743998993 y_1!2_2!5 -77.6339136172497 y_1!3_2!5 +9.07378670646996 y_1!4_2!5 -19.837649935618188 y_1!5_2!5 + lambda_0!3 - mu_0 = 0
 epc_0!4: +62.29605118936354 y_1!1_2!1 +33.15478935376248 y_1!2_2!1 -68.5477973546581 y_1!3_2!1 -38.52274733601344 y_1!4_2!1 -59.2049739627327 y_1!5_2!1 +64.45132191992633 y_1!1_2!2 -68.05268933995683 y_1!2_2!2 -34.95982883659423 y_1!3_2!2 -85.46530533246796 y_1!4_2!2 +74.53751212876614 y_1!5_2!2 +77.6131190003085 y_1!1_2!3 -75.09165673268019 y_1!2_2!3 -77.47499932742718 y_1!3_2!3 -59.370009055044015 y_1!4_2!3 -34.596930726131376 y_1!5_2!3 -28.677751282192347 y_1!1_2!4 +44.595861861509206 y_1!2_2!4 +21.16607106602804 y_1!3_2!4 +22.421886430521013 y_1!4_2!4 +26.97981123246747 y_1!5_2!4 +9.252569817467247 y_1!1_2!5 -99.0778566009012 y_1!2_2!5 +50.23585723419231 y_1!3_2!5 +10.065818297492001 y_1!4_2!5 -87.86526283444273 y_1!5_2!5 + lambda_0!4 - mu_0 = 0
 epc_0!5: -93.33522517075717 y_1!1_2!1 -55.70481780118233 y_1!2_2!1 -34.41773633403696 y_1!3_2!1 +96.37894997708159 y_1!4_2!1 -25.131839590465518 y_1!5_2!1 +99.67824742410983 y_1!1_2!2 +65.9351840571772 y_1!2_2!2 +66.37678497830467 y_1!3_2!2 +84.00791212754876 y_1!4_2!2 -46.95687222951497 y_1!5_2!2 -48.22800162927416 y_1!1_2!3 -23.673045985290514 y_1!2_2!3 +47.35927153927466 y_1!3_2!3 -99.96392729966026 y_1!4_2!3 -96.82040668367513 y_1!5_2!3 -85.60472759983818 y_1!1_2!4 -56.96362163268627 y_1!2_2!4 -66.87098590495582 y_1!3_2!4 +91.34536021296452 y_1!4_2!4 +5.733058784623708 y_1!5_2!4 -11.564458780826698 y_1!1_2!5 +51.41352607709001 y_1!2_2!5 +5.042960557143573 y_1!3_2!5 -39.94194457062168 y_1!4_2!5 -10.71800811240766 y_1!5_2!5 + lambda_0!5 - mu_0 = 0
 dc_0: x_0!1 + x_0!2 + x_0!3 + x_0!4 + x_0!5 = 1
 bc_0!1: lambda_0!1 +299.6421747237701 x_0!1 <= 299.6421747237701
 bc_0!2: lambda_0!2 +299.6421747237701 x_0!2 <= 299.6421747237701
 bc_0!3: lambda_0!3 +299.6421747237701 x_0!3 <= 299.6421747237701
 bc_0!4: lambda_0!4 +299.6421747237701 x_0!4 <= 299.6421747237701
 bc_0!5: lambda_0!5 +299.6421747237701 x_0!5 <= 299.6421747237701
 sum_0!1: y_1!1_2!1 - x_1!1 - x_2!1 >= -1
 idk_0!1!1: y_1!1_2!1 - x_1!1 <= 0
 idk_0!1!2: y_1!1_2!1 - x_2!1 <= 0
 sum_0!2: y_1!2_2!1 - x_1!2 - x_2!1 >= -1
 idk_0!2!1: y_1!2_2!1 - x_1!2 <= 0
 idk_0!2!2: y_1!2_2!1 - x_2!1 <= 0
 sum_0!3: y_1!3_2!1 - x_1!3 - x_2!1 >= -1
 idk_0!3!1: y_1!3_2!1 - x_1!3 <= 0
 idk_0!3!2: y_1!3_2!1 - x_2!1 <= 0
 sum_0!4: y_1!4_2!1 - x_1!4 - x_2!1 >= -1
 idk_0!4!1: y_1!4_2!1 - x_1!4 <= 0
 idk_0!4!2: y_1!4_2!1 - x_2!1 <= 0
 sum_0!5: y_1!5_2!1 - x_1!5 - x_2!1 >= -1
 idk_0!5!1: y_1!5_2!1 - x_1!5 <= 0
 idk_0!5!2: y_1!5_2!1 - x_2!1 <= 0
 sum_0!6: y_1!1_2!2 - x_1!1 - x_2!2 >= -1
 idk_0!6!1: y_1!1_2!2 - x_1!1 <= 0
 idk_0!6!2: y_1!1_2!2 - x_2!2 <= 0
 sum_0!7: y_1!2_2!2 - x_1!2 - x_2!2 >= -1
 idk_0!7!1: y_1!2_2!2 - x_1!2 <= 0
 idk_0!7!2: y_1!2_2!2 - x_2!2 <= 0
 sum_0!8: y_1!3_2!2 - x_1!3 - x_2!2 >= -1
 idk_0!8!1: y_1!3_2!2 - x_1!3 <= 0
 idk_0!8!2: y_1!3_2!2 - x_2!2 <= 0
 sum_0!9: y_1!4_2!2 - x_1!4 - x_2!2 >= -1
 idk_0!9!1: y_1!4_2!2 - x_1!4 <= 0
 idk_0!9!2: y_1!4_2!2 - x_2!2 <= 0
 sum_0!10: y_1!5_2!2 - x_1!5 - x_2!2 >= -1
 idk_0!10!1: y_1!5_2!2 - x_1!5 <= 0
 idk_0!10!2: y_1!5_2!2 - x_2!2 <= 0
 sum_0!11: y_1!1_2!3 - x_1!1 - x_2!3 >= -1
 idk_0!11!1: y_1!1_2!3 - x_1!1 <= 0
 idk_0!11!2: y_1!1_2!3 - x_2!3 <= 0
 sum_0!12: y_1!2_2!3 - x_1!2 - x_2!3 >= -1
 idk_0!12!1: y_1!2_2!3 - x_1!2 <= 0
 idk_0!12!2: y_1!2_2!3 - x_2!3 <= 0
 sum_0!13: y_1!3_2!3 - x_1!3 - x_2!3 >= -1
 idk_0!13!1: y_1!3_2!3 - x_1!3 <= 0
 idk_0!13!2: y_1!3_2!3 - x_2!3 <= 0
 sum_0!14: y_1!4_2!3 - x_1!4 - x_2!3 >= -1
 idk_0!14!1: y_1!4_2!3 - x_1!4 <= 0
 idk_0!14!2: y_1!4_2!3 - x_2!3 <= 0
 sum_0!15: y_1!5_2!3 - x_1!5 - x_2!3 >= -1
 idk_0!15!1: y_1!5_2!3 - x_1!5 <= 0
 idk_0!15!2: y_1!5_2!3 - x_2!3 <= 0
 sum_0!16: y_1!1_2!4 - x_1!1 - x_2!4 >= -1
 idk_0!16!1: y_1!1_2!4 - x_1!1 <= 0
 idk_0!16!2: y_1!1_2!4 - x_2!4 <= 0
 sum_0!17: y_1!2_2!4 - x_1!2 - x_2!4 >= -1
 idk_0!17!1: y_1!2_2!4 - x_1!2 <= 0
 idk_0!17!2: y_1!2_2!4 - x_2!4 <= 0
 sum_0!18: y_1!3_2!4 - x_1!3 - x_2!4 >= -1
 idk_0!18!1: y_1!3_2!4 - x_1!3 <= 0
 idk_0!18!2: y_1!3_2!4 - x_2!4 <= 0
 sum_0!19: y_1!4_2!4 - x_1!4 - x_2!4 >= -1
 idk_0!19!1: y_1!4_2!4 - x_1!4 <= 0
 idk_0!19!2: y_1!4_2!4 - x_2!4 <= 0
 sum_0!20: y_1!5_2!4 - x_1!5 - x_2!4 >= -1
 idk_0!20!1: y_1!5_2!4 - x_1!5 <= 0
 idk_0!20!2: y_1!5_2!4 - x_2!4 <= 0
 sum_0!21: y_1!1_2!5 - x_1!1 - x_2!5 >= -1
 idk_0!21!1: y_1!1_2!5 - x_1!1 <= 0
 idk_0!21!2: y_1!1_2!5 - x_2!5 <= 0
 sum_0!22: y_1!2_2!5 - x_1!2 - x_2!5 >= -1
 idk_0!22!1: y_1!2_2!5 - x_1!2 <= 0
 idk_0!22!2: y_1!2_2!5 - x_2!5 <= 0
 sum_0!23: y_1!3_2!5 - x_1!3 - x_2!5 >= -1
 idk_0!23!1: y_1!3_2!5 - x_1!3 <= 0
 idk_0!23!2: y_1!3_2!5 - x_2!5 <= 0
 sum_0!24: y_1!4_2!5 - x_1!4 - x_2!5 >= -1
 idk_0!24!1: y_1!4_2!5 - x_1!4 <= 0
 idk_0!24!2: y_1!4_2!5 - x_2!5 <= 0
 sum_0!25: y_1!5_2!5 - x_1!5 - x_2!5 >= -1
 idk_0!25!1: y_1!5_2!5 - x_1!5 <= 0
 idk_0!25!2: y_1!5_2!5 - x_2!5 <= 0
 epc_1!1: -77.3124563687775 y_0!1_2!1 -36.6241789694901 y_0!2_2!1 -30.489753718768725 y_0!3_2!1 -69.44047711370918 y_0!4_2!1 +58.983867335490686 y_0!5_2!1 -25.772337707734266 y_0!1_2!2 -89.02164331272621 y_0!2_2!2 -37.636612322645014 y_0!3_2!2 +24.378888208211563 y_0!4_2!2 +49.72019723806142 y_0!5_2!2 +68.10233102587563 y_0!1_2!3 +34.252015929771005 y_0!2_2!3 -50.26568808618605 y_0!3_2!3 +28.468763122200897 y_0!4_2!3 +98.6119187856157 y_0!5_2!3 -7.941516920460231 y_0!1_2!4 +99.44244827664929 y_0!2_2!4 -41.177229555984155 y_0!3_2!4 +1.1698091714329024 y_0!4_2!4 -94.0237339918878 y_0!5_2!4 -39.3729179538598 y_0!1_2!5 -9.712627549107083 y_0!2_2!5 +77.15230188542196 y_0!3_2!5 -92.98160303882486 y_0!4_2!5 -44.10439598899156 y_0!5_2!5 + lambda_1!1 - mu_1 = 0
 epc_1!2: -19.36747824932175 y_0!1_2!1 -95.6511119034607 y_0!2_2!1 -26.92645736562767 y_0!3_2!1 +2.3755149156067716 y_0!4_2!1 -65.40207597541135 y_0!5_2!1 +43.92099004287286 y_0!1_2!2 +70.22843413895183 y_0!2_2!2 -53.90529624593896 y_0!3_2!2 -25.51720578252818 y_0!4_2!2 +80.0155216542166 y_0!5_2!2 -5.429204541985371 y_0!1_2!3 -36.02464378373733 y_0!2_2!3 -94.08850048510166 y_0!3_2!3 +32.459157989650606 y_0!4_2!3 -85.42195973430766 y_0!5_2!3 -2.3296684471881406 y_0!1_2!4 -80.15452082802996 y_0!2_2!4 +46.19010781693021 y_0!3_2!4 -80.51618874692777 y_0!4_2!4 -84.80919072605097 y_0!5_2!4 -11.335094710862819 y_0!1_2!5 -62.751965274176705 y_0!2_2!5 -50.282315920462686 y_0!3_2!5 -21.530844674208026 y_0!4_2!5 -52.79517556525821 y_0!5_2!5 + lambda_1!2 - mu_1 = 0
 epc_1!3: +59.364061823854854 y_0!1_2!1 +57.31509188016929 y_0!2_2!1 +45.265014002980166 y_0!3_2!1 -85.0775806290122 y_0!4_2!1 -70.0748243337625 y_0!5_2!1 -98.6979125311827 y_0!1_2!2 -49.71759788232888 y_0!2_2!2 -55.11863190987527 y_0!3_2!2 +81.64775013087831 y_0!4_2!2 -94.94709478431034 y_0!5_2!2 -91.5045810450713 y_0!1_2!3 +98.78870343690372 y_0!2_2!3 +25.836365982473254 y_0!3_2!3 +75.20018177967606 y_0!4_2!3 +37.990009787737534 y_0!5_2!3 -25.314868339973344 y_0!1_2!4 +33.56580429529319 y_0!2_2!4 -19.611598496240674 y_0!3_2!4 +14.728997095344695 y_0!4_2!4 +32.199047775680356 y_0!5_2!4 +88.22472464552078 y_0!1_2!5 -80.26486878252132 y_0!2_2!5 +14.976799801414174 y_0!3_2!5 +45.50358617334021 y_0!4_2!5 -56.363076479044594 y_0!5_2!5 + lambda_1!3 - mu_1 = 0
 epc_1!4: +57.855806976649546 y_0!1_2!1 +2.2625990880631406 y_0!2_2!1 +91.05511367339781 y_0!3_2!1 -18.177472673250406 y_0!4_2!1 +22.768857808218087 y_0!5_2!1 +23.879534830321944 y_0!1_2!2 -84.97848285119218 y_0!2_2!2 -84.93397290023943 y_0!3_2!2 +67.16115332525027 y_0!4_2!2 +20.875759832046725 y_0!5_2!2 -61.653967397472556 y_0!1_2!3 +74.57845537712794 y_0!2_2!3 +60.22919898716515 y_0!3_2!3 +37.83008650366551 y_0!4_2!3 -7.007958914654708 y_0!5_2!3 +8.806092797991226 y_0!1_2!4 +66.25916151564064 y_0!2_2!4 +89.42405056712744 y_0!3_2!4 +74.14828197859325 y_0!4_2!4 +7.260608933222116 y_0!5_2!4 +67.97374194137879 y_0!1_2!5 -47.65126349131204 y_0!2_2!5 +76.07550269793109 y_0!3_2!5 -27.78444056790059 y_0!4_2!5 -15.575850073815346 y_0!5_2!5 + lambda_1!4 - mu_1 = 0
 epc_1!5: +21.61432045157315 y_0!1_2!1 +67.00063267565537 y_0!2_2!1 -0.3042142060374715 y_0!3_2!1 -12.452813865011564 y_0!4_2!1 -7.648250827011054 y_0!5_2!1 +82.93649238714221 y_0!1_2!2 -53.239928487417586 y_0!2_2!2 +12.003310962053831 y_0!3_2!2 -20.03217813873968 y_0!4_2!2 +96.6774536336336 y_0!5_2!2 +1.9247807237828596 y_0!1_2!3 +93.3450116571293 y_0!2_2!3 -19.57942189402651 y_0!3_2!3 +40.182395572634476 y_0!4_2!3 +65.57124270026432 y_0!5_2!3 +19.14651788172017 y_0!1_2!4 +65.77699801403449 y_0!2_2!4 +87.67566764845893 y_0!3_2!4 +29.983748673358235 y_0!4_2!4 +67.05870871983964 y_0!5_2!4 +14.926630371834321 y_0!1_2!5 -25.588163591449756 y_0!2_2!5 -66.36665587149437 y_0!3_2!5 -0.4474487035630972 y_0!4_2!5 +67.5287405745753 y_0!5_2!5 + lambda_1!5 - mu_1 = 0
 dc_1: x_1!1 + x_1!2 + x_1!3 + x_1!4 + x_1!5 = 1
 bc_1!1: lambda_1!1 +299.6421747237701 x_1!1 <= 299.6421747237701
 bc_1!2: lambda_1!2 +299.6421747237701 x_1!2 <= 299.6421747237701
 bc_1!3: lambda_1!3 +299.6421747237701 x_1!3 <= 299.6421747237701
 bc_1!4: lambda_1!4 +299.6421747237701 x_1!4 <= 299.6421747237701
 bc_1!5: lambda_1!5 +299.6421747237701 x_1!5 <= 299.6421747237701
 sum_1!1: y_0!1_2!1 - x_0!1 - x_2!1 >= -1
 idk_1!1!0: y_0!1_2!1 - x_0!1 <= 0
 idk_1!1!2: y_0!1_2!1 - x_2!1 <= 0
 sum_1!2: y_0!2_2!1 - x_0!2 - x_2!1 >= -1
 idk_1!2!0: y_0!2_2!1 - x_0!2 <= 0
 idk_1!2!2: y_0!2_2!1 - x_2!1 <= 0
 sum_1!3: y_0!3_2!1 - x_0!3 - x_2!1 >= -1
 idk_1!3!0: y_0!3_2!1 - x_0!3 <= 0
 idk_1!3!2: y_0!3_2!1 - x_2!1 <= 0
 sum_1!4: y_0!4_2!1 - x_0!4 - x_2!1 >= -1
 idk_1!4!0: y_0!4_2!1 - x_0!4 <= 0
 idk_1!4!2: y_0!4_2!1 - x_2!1 <= 0
 sum_1!5: y_0!5_2!1 - x_0!5 - x_2!1 >= -1
 idk_1!5!0: y_0!5_2!1 - x_0!5 <= 0
 idk_1!5!2: y_0!5_2!1 - x_2!1 <= 0
 sum_1!6: y_0!1_2!2 - x_0!1 - x_2!2 >= -1
 idk_1!6!0: y_0!1_2!2 - x_0!1 <= 0
 idk_1!6!2: y_0!1_2!2 - x_2!2 <= 0
 sum_1!7: y_0!2_2!2 - x_0!2 - x_2!2 >= -1
 idk_1!7!0: y_0!2_2!2 - x_0!2 <= 0
 idk_1!7!2: y_0!2_2!2 - x_2!2 <= 0
 sum_1!8: y_0!3_2!2 - x_0!3 - x_2!2 >= -1
 idk_1!8!0: y_0!3_2!2 - x_0!3 <= 0
 idk_1!8!2: y_0!3_2!2 - x_2!2 <= 0
 sum_1!9: y_0!4_2!2 - x_0!4 - x_2!2 >= -1
 idk_1!9!0: y_0!4_2!2 - x_0!4 <= 0
 idk_1!9!2: y_0!4_2!2 - x_2!2 <= 0
 sum_1!10: y_0!5_2!2 - x_0!5 - x_2!2 >= -1
 idk_1!10!0: y_0!5_2!2 - x_0!5 <= 0
 idk_1!10!2: y_0!5_2!2 - x_2!2 <= 0
 sum_1!11: y_0!1_2!3 - x_0!1 - x_2!3 >= -1
 idk_1!11!0: y_0!1_2!3 - x_0!1 <= 0
 idk_1!11!2: y_0!1_2!3 - x_2!3 <= 0
 sum_1!12: y_0!2_2!3 - x_0!2 - x_2!3 >= -1
 idk_1!12!0: y_0!2_2!3 - x_0!2 <= 0
 idk_1!12!2: y_0!2_2!3 - x_2!3 <= 0
 sum_1!13: y_0!3_2!3 - x_0!3 - x_2!3 >= -1
 idk_1!13!0: y_0!3_2!3 - x_0!3 <= 0
 idk_1!13!2: y_0!3_2!3 - x_2!3 <= 0
 sum_1!14: y_0!4_2!3 - x_0!4 - x_2!3 >= -1
 idk_1!14!0: y_0!4_2!3 - x_0!4 <= 0
 idk_1!14!2: y_0!4_2!3 - x_2!3 <= 0
 sum_1!15: y_0!5_2!3 - x_0!5 - x_2!3 >= -1
 idk_1!15!0: y_0!5_2!3 - x_0!5 <= 0
 idk_1!15!2: y_0!5_2!3 - x_2!3 <= 0
 sum_1!16: y_0!1_2!4 - x_0!1 - x_2!4 >= -1
 idk_1!16!0: y_0!1_2!4 - x_0!1 <= 0
 idk_1!16!2: y_0!1_2!4 - x_2!4 <= 0
 sum_1!17: y_0!2_2!4 - x_0!2 - x_2!4 >= -1
 idk_1!17!0: y_0!2_2!4 - x_0!2 <= 0
 idk_1!17!2: y_0!2_2!4 - x_2!4 <= 0
 sum_1!18: y_0!3_2!4 - x_0!3 - x_2!4 >= -1
 idk_1!18!0: y_0!3_2!4 - x_0!3 <= 0
 idk_1!18!2: y_0!3_2!4 - x_2!4 <= 0
 sum_1!19: y_0!4_2!4 - x_0!4 - x_2!4 >= -1
 idk_1!19!0: y_0!4_2!4 - x_0!4 <= 0
 idk_1!19!2: y_0!4_2!4 - x_2!4 <= 0
 sum_1!20: y_0!5_2!4 - x_0!5 - x_2!4 >= -1
 idk_1!20!0: y_0!5_2!4 - x_0!5 <= 0
 idk_1!20!2: y_0!5_2!4 - x_2!4 <= 0
 sum_1!21: y_0!1_2!5 - x_0!1 - x_2!5 >= -1
 idk_1!21!0: y_0!1_2!5 - x_0!1 <= 0
 idk_1!21!2: y_0!1_2!5 - x_2!5 <= 0
 sum_1!22: y_0!2_2!5 - x_0!2 - x_2!5 >= -1
 idk_1!22!0: y_0!2_2!5 - x_0!2 <= 0
 idk_1!22!2: y_0!2_2!5 - x_2!5 <= 0
 sum_1!23: y_0!3_2!5 - x_0!3 - x_2!5 >= -1
 idk_1!23!0: y_0!3_2!5 - x_0!3 <= 0
 idk_1!23!2: y_0!3_2!5 - x_2!5 <= 0
 sum_1!24: y_0!4_2!5 - x_0!4 - x_2!5 >= -1
 idk_1!24!0: y_0!4_2!5 - x_0!4 <= 0
 idk_1!24!2: y_0!4_2!5 - x_2!5 <= 0
 sum_1!25: y_0!5_2!5 - x_0!5 - x_2!5 >= -1
 idk_1!25!0: y_0!5_2!5 - x_0!5 <= 0
 idk_1!25!2: y_0!5_2!5 - x_2!5 <= 0
 epc_2!1: -17.6524749215813 y_0!1_1!1 -2.7473577427165026 y_0!2_1!1 -59.33021036224622 y_0!3_1!1 -84.77848921071458 y_0!4_1!1 -30.064437537543796 y_0!5_1!1 -60.774248906774034 y_0!1_1!2 +58.63436668141472 y_0!2_1!2 -47.48322969722045 y_0!3_1!2 -41.89912692674766 y_0!4_1!2 +80.9519622007839 y_0!5_1!2 +67.6512041549783 y_0!1_1!3 +23.816118625994392 y_0!2_1!3 -22.50331511002777 y_0!3_1!3 +20.1242337906814 y_0!4_1!3 +96.32601213663878 y_0!5_1!3 +3.476704412739579 y_0!1_1!4 -97.10105312609369 y_0!2_1!4 +94.1868481525639 y_0!3_1!4 -88.23567767595348 y_0!4_1!4 +79.82449587239145 y_0!5_1!4 +21.560698607980726 y_0!1_1!5 +19.713598808683315 y_0!2_1!5 -6.0880345873682415 y_0!3_1!5 +59.85620901330438 y_0!4_1!5 -0.29950315383307213 y_0!5_1!5 + lambda_2!1 - mu_2 = 0
 epc_2!2: -93.82417373919778 y_0!1_1!1 +59.86985113952065 y_0!2_1!1 +29.199576810533415 y_0!3_1!1 +26.6354021571275 y_0!4_1!1 -24.97323132218183 y_0!5_1!1 +9.197359456006765 y_0!1_1!2 -42.26878947006636 y_0!2_1!2 +91.2642667853336 y_0!3_1!2 +88.66164682960394 y_0!4_1!2 +45.789136915677375 y_0!5_1!2 -50.74109357021419 y_0!1_1!3 -10.44745739265251 y_0!2_1!3 +86.19550302496305 y_0!3_1!3 +85.23026795214349 y_0!4_1!3 -39.56664859910828 y_0!5_1!3 -25.635023593370306 y_0!1_1!4 -65.86612165796132 y_0!2_1!4 +78.60521953378174 y_0!3_1!4 -40.43832586957545 y_0!4_1!4 -59.56205810900626 y_0!5_1!4 +29.89396055158889 y_0!1_1!5 -25.443863936285922 y_0!2_1!5 +60.25342280102012 y_0!3_1!5 +87.47852657341724 y_0!4_1!5 +44.76688010620532 y_0!5_1!5 + lambda_2!2 - mu_2 = 0
 epc_2!3: -99.04344739467822 y_0!1_1!1 -52.16297023637206 y_0!2_1!1 -76.67731112298127 y_0!3_1!1 +60.294485292608556 y_0!4_1!1 -24.113283916268074 y_0!5_1!1 -81.75701978568266 y_0!1_1!2 +56.78018125626059 y_0!2_1!2 +38.16682192882385 y_0!3_1!2 -45.33284360349856 y_0!4_1!2 +69.55740051751343 y_0!5_1!2 +86.23926927095596 y_0!1_1!3 +68.62932616593466 y_0!2_1!3 +85.52738101919331 y_0!3_1!3 +25.70782050437532 y_0!4_1!3 +15.299507783033334 y_0!5_1!3 -33.97845188409974 y_0!1_1!4 +81.05694130202406 y_0!2_1!4 +29.750584528345655 y_0!3_1!4 +20.646252850768036 y_0!4_1!4 +22.452071093543992 y_0!5_1!4 +15.906397803682083 y_0!1_1!5 -79.01286601276894 y_0!2_1!5 +60.07578913997813 y_0!3_1!5 +91.74702722065459 y_0!4_1!5 +33.27596722334772 y_0!5_1!5 + lambda_2!3 - mu_2 = 0
 epc_2!4: +5.6443829399387795 y_0!1_1!1 -59.974636070290856 y_0!2_1!1 +55.69254195711707 y_0!3_1!1 -16.44991171069688 y_0!4_1!1 -54.88798537396973 y_0!5_1!1 +62.1576764728687 y_0!1_1!2 -76.77587625650311 y_0!2_1!2 -71.99365763322581 y_0!3_1!2 -81.26253268577574 y_0!4_1!2 -62.50533070479114 y_0!5_1!2 -69.40109664315672 y_0!1_1!3 +18.84747312736046 y_0!2_1!3 +69.93715228287448 y_0!3_1!3 +94.29085068248031 y_0!4_1!3 +46.719467476912655 y_0!5_1!3 +13.875626654332706 y_0!1_1!4 +14.890281368910621 y_0!2_1!4 +12.281615637610386 y_0!3_1!4 +42.66071206495036 y_0!4_1!4 -0.05174930777664599 y_0!5_1!4 -17.66059644170592 y_0!1_1!5 -8.862611752172114 y_0!2_1!5 -41.91585671100337 y_0!3_1!5 -16.07469829821106 y_0!4_1!5 -38.97025899956796 y_0!5_1!5 + lambda_2!4 - mu_2 = 0
 epc_2!5: +4.899696911369688 y_0!1_1!1 -10.39331750570949 y_0!2_1!1 +63.1378268572015 y_0!3_1!1 +58.076998098492936 y_0!4_1!1 +6.870637424281227 y_0!5_1!1 -62.67603041208352 y_0!1_1!2 -90.5217246252475 y_0!2_1!2 -82.93861297315222 y_0!3_1!2 +30.872458310574046 y_0!4_1!2 -24.429091515412978 y_0!5_1!2 +92.0331419786292 y_0!1_1!3 -91.09685306373522 y_0!2_1!3 -15.010668757545304 y_0!3_1!3 +62.635080810464416 y_0!4_1!3 -77.25101563267027 y_0!5_1!3 +91.58289318968923 y_0!1_1!4 +52.848666475219204 y_0!2_1!4 -28.478702644835607 y_0!3_1!4 +37.94302132779151 y_0!4_1!4 +36.52780527537831 y_0!5_1!4 -94.80531167931517 y_0!1_1!5 -90.00134778756424 y_0!2_1!5 +25.539957016050565 y_0!3_1!5 -60.007492146505804 y_0!4_1!5 +80.9522617130198 y_0!5_1!5 + lambda_2!5 - mu_2 = 0
 dc_2: x_2!1 + x_2!2 + x_2!3 + x_2!4 + x_2!5 = 1
 bc_2!1: lambda_2!1 +299.6421747237701 x_2!1 <= 299.6421747237701
 bc_2!2: lambda_2!2 +299.6421747237701 x_2!2 <= 299.6421747237701
 bc_2!3: lambda_2!3 +299.6421747237701 x_2!3 <= 299.6421747237701
 bc_2!4: lambda_2!4 +299.6421747237701 x_2!4 <= 299.6421747237701
 bc_2!5: lambda_2!5 +299.6421747237701 x_2!5 <= 299.6421747237701
 sum_2!1: y_0!1_1!1 - x_0!1 - x_1!1 >= -1
 idk_2!1!0: y_0!1_1!1 - x_0!1 <= 0
 idk_2!1!1: y_0!1_1!1 - x_1!1 <= 0
 sum_2!2: y_0!2_1!1 - x_0!2 - x_1!1 >= -1
 idk_2!2!0: y_0!2_1!1 - x_0!2 <= 0
 idk_2!2!1: y_0!2_1!1 - x_1!1 <= 0
 sum_2!3: y_0!3_1!1 - x_0!3 - x_1!1 >= -1
 idk_2!3!0: y_0!3_1!1 - x_0!3 <= 0
 idk_2!3!1: y_0!3_1!1 - x_1!1 <= 0
 sum_2!4: y_0!4_1!1 - x_0!4 - x_1!1 >= -1
 idk_2!4!0: y_0!4_1!1 - x_0!4 <= 0
 idk_2!4!1: y_0!4_1!1 - x_1!1 <= 0
 sum_2!5: y_0!5_1!1 - x_0!5 - x_1!1 >= -1
 idk_2!5!0: y_0!5_1!1 - x_0!5 <= 0
 idk_2!5!1: y_0!5_1!1 - x_1!1 <= 0
 sum_2!6: y_0!1_1!2 - x_0!1 - x_1!2 >= -1
 idk_2!6!0: y_0!1_1!2 - x_0!1 <= 0
 idk_2!6!1: y_0!1_1!2 - x_1!2 <= 0
 sum_2!7: y_0!2_1!2 - x_0!2 - x_1!2 >= -1
 idk_2!7!0: y_0!2_1!2 - x_0!2 <= 0
 idk_2!7!1: y_0!2_1!2 - x_1!2 <= 0
 sum_2!8: y_0!3_1!2 - x_0!3 - x_1!2 >= -1
 idk_2!8!0: y_0!3_1!2 - x_0!3 <= 0
 idk_2!8!1: y_0!3_1!2 - x_1!2 <= 0
 sum_2!9: y_0!4_1!2 - x_0!4 - x_1!2 >= -1
 idk_2!9!0: y_0!4_1!2 - x_0!4 <= 0
 idk_2!9!1: y_0!4_1!2 - x_1!2 <= 0
 sum_2!10: y_0!5_1!2 - x_0!5 - x_1!2 >= -1
 idk_2!10!0: y_0!5_1!2 - x_0!5 <= 0
 idk_2!10!1: y_0!5_1!2 - x_1!2 <= 0
 sum_2!11: y_0!1_1!3 - x_0!1 - x_1!3 >= -1
 idk_2!11!0: y_0!1_1!3 - x_0!1 <= 0
 idk_2!11!1: y_0!1_1!3 - x_1!3 <= 0
 sum_2!12: y_0!2_1!3 - x_0!2 - x_1!3 >= -1
 idk_2!12!0: y_0!2_1!3 - x_0!2 <= 0
 idk_2!12!1: y_0!2_1!3 - x_1!3 <= 0
 sum_2!13: y_0!3_1!3 - x_0!3 - x_1!3 >= -1
 idk_2!13!0: y_0!3_1!3 - x_0!3 <= 0
 idk_2!13!1: y_0!3_1!3 - x_1!3 <= 0
 sum_2!14: y_0!4_1!3 - x_0!4 - x_1!3 >= -1
 idk_2!14!0: y_0!4_1!3 - x_0!4 <= 0
 idk_2!14!1: y_0!4_1!3 - x_1!3 <= 0
 sum_2!15: y_0!5_1!3 - x_0!5 - x_1!3 >= -1
 idk_2!15!0: y_0!5_1!3 - x_0!5 <= 0
 idk_2!15!1: y_0!5_1!3 - x_1!3 <= 0
 sum_2!16: y_0!1_1!4 - x_0!1 - x_1!4 >= -1
 idk_2!16!0: y_0!1_1!4 - x_0!1 <= 0
 idk_2!16!1: y_0!1_1!4 - x_1!4 <= 0
 sum_2!17: y_0!2_1!4 - x_0!2 - x_1!4 >= -1
 idk_2!17!0: y_0!2_1!4 - x_0!2 <= 0
 idk_2!17!1: y_0!2_1!4 - x_1!4 <= 0
 sum_2!18: y_0!3_1!4 - x_0!3 - x_1!4 >= -1
 idk_2!18!0: y_0!3_1!4 - x_0!3 <= 0
 idk_2!18!1: y_0!3_1!4 - x_1!4 <= 0
 sum_2!19: y_0!4_1!4 - x_0!4 - x_1!4 >= -1
 idk_2!19!0: y_0!4_1!4 - x_0!4 <= 0
 idk_2!19!1: y_0!4_1!4 - x_1!4 <= 0
 sum_2!20: y_0!5_1!4 - x_0!5 - x_1!4 >= -1
 idk_2!20!0: y_0!5_1!4 - x_0!5 <= 0
 idk_2!20!1: y_0!5_1!4 - x_1!4 <= 0
 sum_2!21: y_0!1_1!5 - x_0!1 - x_1!5 >= -1
 idk_2!21!0: y_0!1_1!5 - x_0!1 <= 0
 idk_2!21!1: y_0!1_1!5 - x_1!5 <= 0
 sum_2!22: y_0!2_1!5 - x_0!2 - x_1!5 >= -1
 idk_2!22!0: y_0!2_1!5 - x_0!2 <= 0
 idk_2!22!1: y_0!2_1!5 - x_1!5 <= 0
 sum_2!23: y_0!3_1!5 - x_0!3 - x_1!5 >= -1
 idk_2!23!0: y_0!3_1!5 - x_0!3 <= 0
 idk_2!23!1: y_0!3_1!5 - x_1!5 <= 0
 sum_2!24: y_0!4_1!5 - x_0!4 - x_1!5 >= -1
 idk_2!24!0: y_0!4_1!5 - x_0!4 <= 0
 idk_2!24!1: y_0!4_1!5 - x_1!5 <= 0
 sum_2!25: y_0!5_1!5 - x_0!5 - x_1!5 >= -1
 idk_2!25!0: y_0!5_1!5 - x_0!5 <= 0
 idk_2!25!1: y_0!5_1!5 - x_1!5 <= 0
Bounds
 mu_0 free
 mu_1 free
 mu_2 free
Binary
 x_0!1 x_0!2 x_0!3 x_0!4 x_0!5 x_1!1 x_1!2 x_1!3 x_1!4 x_1!5 x_2!1 x_2!2 x_2!3 x_2!4 x_2!5
End
